celar_50_7_10_5_0.800000_0 100 52 280 730001
52 42 51 46 48 47 45 46 44 41 44 44 40 48 50 52 46 40 52 46 51 47 41 50 47 46 41 47 41 50 42 42 43 45 46 42 41 44 49 40 51 42 52 52 42 42 42 46 42 51 45 41 49 47 49 40 49 51 40 50 41 49 44 42 47 52 44 49 43 47 47 49 43 43 41 49 42 42 50 40 41 40 45 41 45 44 49 52 40 40 45 44 46 52 46 40 46 52 42 45
2 0 1 10000 48
0 15 0
1 16 0
2 17 0
3 18 0
4 19 0
5 20 0
6 21 0
7 22 0
8 23 0
9 24 0
10 25 0
11 26 0
12 27 0
13 28 0
14 29 0
16 30 0
17 31 0
19 32 0
20 33 0
21 34 0
22 35 0
23 0 0
23 36 0
24 1 0
24 37 0
25 2 0
25 38 0
26 3 0
26 39 0
27 4 0
27 40 0
28 41 0
31 5 0
32 6 0
33 7 0
35 8 0
36 9 0
38 10 0
39 11 0
40 12 0
42 13 0
43 14 0
46 15 0
47 16 0
48 17 0
49 18 0
50 19 0
51 20 0
2 2 3 10000 50
0 20 0
1 21 0
2 22 0
3 23 0
5 24 0
6 25 0
7 26 0
8 27 0
9 28 0
10 29 0
11 30 0
12 31 0
13 32 0
14 33 0
15 34 0
16 35 0
18 36 0
19 37 0
20 38 0
21 39 0
22 40 0
23 0 0
23 41 0
24 1 0
24 42 0
25 2 0
25 43 0
26 3 0
26 44 0
27 4 0
28 45 0
29 5 0
32 6 0
33 7 0
34 8 0
35 9 0
36 10 0
37 11 0
38 12 0
39 13 0
40 14 0
41 15 0
42 16 0
43 17 0
44 18 0
45 19 0
46 20 0
47 22 0
48 23 0
50 24 0
2 4 5 10000 49
0 22 0
1 23 0
2 24 0
3 25 0
4 26 0
5 27 0
6 28 0
7 29 0
8 30 0
9 31 0
10 32 0
11 33 0
13 35 0
14 36 0
15 38 0
17 39 0
19 40 0
20 0 0
20 41 0
21 1 0
21 42 0
22 2 0
22 43 0
23 3 0
23 44 0
24 4 0
24 45 0
25 6 0
26 7 0
27 8 0
28 9 0
29 10 0
30 11 0
31 12 0
32 13 0
33 14 0
34 15 0
35 16 0
36 17 0
37 18 0
39 19 0
40 20 0
41 21 0
42 22 0
43 23 0
44 24 0
45 25 0
46 26 0
47 27 0
2 6 7 10000 44
0 21 0
1 23 0
3 24 0
4 25 0
5 27 0
6 28 0
7 29 0
9 30 0
10 31 0
12 32 0
13 33 0
14 34 0
15 35 0
16 36 0
17 37 0
18 39 0
19 0 0
19 40 0
20 2 0
20 42 0
21 3 0
21 43 0
22 4 0
22 44 0
23 5 0
23 45 0
24 6 0
25 7 0
26 8 0
27 9 0
28 10 0
29 11 0
30 12 0
31 13 0
33 14 0
35 15 0
36 16 0
37 17 0
38 18 0
39 19 0
40 20 0
41 21 0
42 23 0
44 24 0
2 8 9 10000 37
0 17 0
1 18 0
2 19 0
4 20 0
6 21 0
7 22 0
8 23 0
9 24 0
10 26 0
11 28 0
12 29 0
13 30 0
14 31 0
15 32 0
16 35 0
17 36 0
18 37 0
20 0 0
20 38 0
21 39 0
22 1 0
24 3 0
25 4 0
26 5 0
27 6 0
28 7 0
30 8 0
32 9 0
33 10 0
34 12 0
35 13 0
36 14 0
37 15 0
38 16 0
39 17 0
40 18 0
42 20 0
2 10 11 10000 42
0 19 0
1 20 0
3 21 0
4 22 0
5 23 0
7 26 0
8 27 0
9 28 0
10 29 0
12 30 0
13 31 0
14 32 0
15 34 0
16 35 0
17 36 0
18 37 0
19 1 0
19 39 0
20 2 0
20 40 0
21 4 0
21 42 0
22 5 0
22 43 0
23 6 0
24 7 0
25 8 0
26 9 0
27 10 0
28 11 0
29 12 0
30 13 0
31 14 0
32 15 0
33 16 0
34 17 0
35 18 0
38 19 0
39 20 0
41 21 0
42 22 0
43 23 0
2 12 13 10000 41
0 22 0
1 23 0
2 24 0
3 25 0
4 26 0
5 27 0
6 29 0
7 30 0
8 31 0
9 32 0
10 33 0
11 34 0
12 35 0
13 36 0
14 37 0
15 38 0
17 40 0
18 41 0
19 42 0
20 45 0
21 2 0
21 46 0
22 4 0
22 47 0
23 6 0
24 8 0
25 9 0
26 10 0
27 11 0
28 12 0
29 13 0
30 14 0
31 15 0
32 17 0
33 19 0
34 20 0
35 21 0
36 24 0
37 25 0
38 26 0
39 27 0
2 14 15 10000 56
0 23 0
1 24 0
2 25 0
3 26 0
4 27 0
5 28 0
6 29 0
7 30 0
8 31 0
9 32 0
10 33 0
11 34 0
12 35 0
13 36 0
14 37 0
15 38 0
16 39 0
17 40 0
18 41 0
19 42 0
20 43 0
21 44 0
22 45 0
23 0 0
23 46 0
24 1 0
24 47 0
25 2 0
25 48 0
26 3 0
26 49 0
27 4 0
27 50 0
28 5 0
28 51 0
29 6 0
30 7 0
31 8 0
32 9 0
33 11 0
34 12 0
35 13 0
36 14 0
37 15 0
38 16 0
39 17 0
40 18 0
41 19 0
42 20 0
43 21 0
44 22 0
45 23 0
46 24 0
47 25 0
48 26 0
49 27 0
2 16 17 10000 39
0 17 0
1 18 0
2 19 0
3 20 0
5 21 0
6 22 0
7 23 0
8 24 0
9 25 0
10 26 0
12 27 0
15 28 0
16 29 0
17 30 0
18 31 0
19 32 0
21 34 0
22 0 0
22 35 0
23 1 0
24 3 0
24 37 0
25 4 0
25 38 0
26 5 0
26 39 0
27 6 0
28 7 0
31 9 0
32 11 0
33 12 0
34 13 0
38 14 0
39 15 0
40 16 0
41 17 0
42 18 0
43 19 0
45 21 0
2 18 19 10000 52
0 21 0
1 22 0
2 23 0
3 24 0
4 25 0
5 26 0
6 27 0
7 28 0
9 29 0
10 30 0
12 31 0
13 32 0
14 33 0
15 34 0
16 35 0
17 36 0
18 37 0
19 38 0
21 39 0
22 40 0
23 0 0
23 41 0
24 1 0
24 42 0
25 2 0
25 43 0
26 3 0
27 4 0
27 44 0
28 5 0
28 45 0
31 6 0
32 7 0
33 8 0
34 9 0
35 10 0
36 11 0
37 12 0
38 13 0
39 14 0
40 15 0
41 16 0
42 17 0
43 18 0
44 19 0
45 20 0
46 21 0
47 22 0
48 23 0
49 24 0
50 25 0
51 26 0
2 20 21 10000 50
0 20 0
1 21 0
2 22 0
3 23 0
5 24 0
6 25 0
7 26 0
9 27 0
10 28 0
11 29 0
12 30 0
13 31 0
14 32 0
15 33 0
16 34 0
17 35 0
18 36 0
19 37 0
20 38 0
21 39 0
22 40 0
23 0 0
23 41 0
24 2 0
24 43 0
25 3 0
25 44 0
26 45 0
27 4 0
27 46 0
28 5 0
29 6 0
30 7 0
31 8 0
32 9 0
33 10 0
35 11 0
36 12 0
37 13 0
38 14 0
39 15 0
40 16 0
42 17 0
43 18 0
44 19 0
45 20 0
46 21 0
47 22 0
48 23 0
50 24 0
2 22 23 10000 44
0 24 0
1 25 0
2 26 0
3 27 0
4 29 0
5 30 0
7 31 0
8 32 0
9 33 0
10 34 0
11 35 0
12 36 0
13 37 0
15 39 0
16 40 0
17 41 0
18 42 0
19 43 0
20 0 0
20 44 0
21 2 0
21 46 0
22 3 0
22 47 0
23 4 0
23 48 0
24 5 0
24 49 0
25 6 0
26 7 0
27 8 0
28 9 0
29 11 0
30 13 0
31 14 0
32 16 0
33 18 0
34 19 0
35 21 0
36 22 0
37 24 0
38 26 0
39 27 0
40 28 0
2 24 25 10000 47
0 18 0
1 19 0
2 20 0
3 21 0
4 22 0
5 23 0
6 24 0
7 25 0
8 26 0
9 28 0
10 29 0
11 30 0
12 31 0
13 32 0
14 33 0
15 34 0
16 35 0
17 36 0
19 38 0
20 39 0
21 0 0
21 40 0
22 1 0
22 41 0
23 3 0
23 43 0
24 4 0
24 44 0
25 5 0
25 45 0
26 6 0
27 7 0
29 8 0
30 9 0
31 10 0
32 11 0
34 12 0
36 13 0
38 15 0
39 16 0
40 17 0
41 18 0
42 19 0
43 20 0
44 21 0
45 22 0
46 23 0
2 26 27 10000 42
0 21 0
1 22 0
2 23 0
3 24 0
4 25 0
5 26 0
6 27 0
7 28 0
8 29 0
9 30 0
10 32 0
11 33 0
12 34 0
13 36 0
14 37 0
15 38 0
17 39 0
18 40 0
19 41 0
20 0 0
20 42 0
21 2 0
21 45 0
22 3 0
23 4 0
23 46 0
24 5 0
25 6 0
26 7 0
27 8 0
28 9 0
29 10 0
31 12 0
32 13 0
33 14 0
34 15 0
35 17 0
36 18 0
37 19 0
38 20 0
39 21 0
40 22 0
2 28 29 10000 45
0 23 0
1 24 0
2 25 0
4 27 0
5 28 0
6 29 0
7 31 0
8 32 0
9 33 0
10 34 0
11 35 0
12 36 0
13 37 0
14 39 0
15 40 0
16 41 0
17 42 0
18 43 0
19 0 0
19 44 0
20 1 0
20 45 0
21 2 0
21 46 0
22 3 0
22 47 0
23 4 0
23 48 0
24 5 0
24 49 0
25 6 0
26 7 0
27 8 0
28 10 0
29 11 0
30 14 0
31 15 0
32 16 0
33 17 0
34 20 0
35 21 0
36 23 0
37 25 0
39 26 0
40 27 0
2 30 31 10000 39
0 18 0
1 19 0
2 20 0
3 22 0
4 23 0
5 24 0
6 25 0
7 26 0
8 27 0
9 28 0
10 29 0
11 30 0
12 32 0
13 33 0
14 34 0
16 35 0
17 36 0
19 1 0
20 38 0
21 2 0
21 39 0
22 3 0
22 40 0
23 4 0
23 41 0
25 5 0
26 6 0
27 7 0
29 8 0
30 10 0
31 11 0
32 12 0
34 14 0
36 17 0
37 18 0
38 19 0
39 20 0
40 21 0
41 22 0
2 32 33 10000 41
0 18 0
1 19 0
2 20 0
3 21 0
5 22 0
6 23 0
7 24 0
8 25 0
9 26 0
10 27 0
11 28 0
12 29 0
13 30 0
14 31 0
15 33 0
16 34 0
17 36 0
18 37 0
19 38 0
20 39 0
21 0 0
22 40 0
23 2 0
23 42 0
24 3 0
24 43 0
25 44 0
26 4 0
27 5 0
29 7 0
31 9 0
32 10 0
33 11 0
34 12 0
35 14 0
36 15 0
37 16 0
38 18 0
39 20 0
40 21 0
42 22 0
2 34 35 10000 43
0 18 0
2 19 0
3 21 0
4 22 0
5 23 0
6 24 0
7 25 0
8 26 0
9 27 0
11 29 0
12 30 0
13 31 0
15 32 0
16 33 0
17 34 0
18 35 0
19 36 0
20 0 0
20 37 0
21 1 0
21 38 0
22 2 0
22 39 0
23 3 0
23 40 0
24 4 0
24 41 0
25 5 0
27 7 0
29 8 0
30 9 0
31 10 0
32 11 0
33 12 0
35 13 0
36 15 0
37 16 0
38 17 0
40 18 0
42 19 0
43 20 0
44 21 0
45 22 0
2 36 37 10000 39
0 20 0
1 21 0
2 22 0
3 23 0
4 24 0
5 25 0
6 26 0
8 28 0
9 29 0
11 30 0
12 31 0
13 33 0
14 34 0
17 36 0
18 37 0
19 38 0
20 0 0
20 39 0
21 1 0
21 40 0
22 41 0
23 2 0
24 4 0
24 43 0
25 5 0
27 6 0
28 7 0
29 8 0
30 9 0
31 11 0
32 12 0
33 14 0
34 15 0
35 16 0
36 17 0
37 18 0
38 21 0
39 24 0
40 25 0
2 38 39 10000 42
0 18 0
1 19 0
3 20 0
4 21 0
5 22 0
6 23 0
7 24 0
8 26 0
9 27 0
11 28 0
12 29 0
13 30 0
16 31 0
17 32 0
18 33 0
21 34 0
22 0 0
22 35 0
23 1 0
23 36 0
24 2 0
24 37 0
25 3 0
25 38 0
26 4 0
26 39 0
27 5 0
28 6 0
30 7 0
32 9 0
33 10 0
34 11 0
35 12 0
36 13 0
37 14 0
39 15 0
41 16 0
42 17 0
44 18 0
45 19 0
47 20 0
48 21 0
2 40 41 10000 47
0 17 0
1 18 0
2 19 0
3 20 0
4 21 0
5 22 0
6 23 0
7 24 0
8 26 0
9 27 0
10 28 0
11 29 0
12 30 0
13 31 0
16 32 0
18 33 0
20 34 0
21 35 0
22 36 0
23 0 0
23 37 0
24 1 0
24 38 0
25 39 0
26 2 0
26 40 0
27 41 0
28 3 0
30 4 0
31 5 0
32 6 0
33 7 0
34 8 0
35 9 0
37 10 0
38 11 0
39 12 0
40 13 0
41 14 0
43 15 0
44 16 0
45 17 0
46 18 0
47 19 0
48 20 0
49 21 0
50 22 0
2 42 43 10000 58
0 23 0
1 24 0
2 25 0
3 26 0
4 27 0
5 28 0
6 29 0
7 30 0
8 31 0
9 32 0
10 33 0
11 34 0
12 35 0
13 36 0
14 37 0
15 38 0
16 39 0
17 40 0
18 41 0
19 42 0
20 43 0
21 44 0
22 45 0
23 0 0
23 46 0
24 1 0
24 47 0
25 2 0
25 48 0
26 3 0
26 49 0
27 4 0
27 50 0
28 5 0
28 51 0
29 6 0
30 7 0
31 8 0
32 9 0
33 10 0
34 11 0
35 12 0
36 13 0
37 14 0
38 15 0
39 16 0
40 17 0
41 18 0
42 19 0
43 20 0
44 21 0
45 22 0
46 23 0
47 24 0
48 25 0
49 26 0
50 27 0
51 28 0
2 44 45 10000 36
0 18 0
1 19 0
2 20 0
4 22 0
5 23 0
6 25 0
7 26 0
8 27 0
9 29 0
10 30 0
11 31 0
15 33 0
16 34 0
17 35 0
18 36 0
19 0 0
20 2 0
20 38 0
21 39 0
22 4 0
22 41 0
23 5 0
24 6 0
25 7 0
28 8 0
29 10 0
30 11 0
31 12 0
32 13 0
33 14 0
34 15 0
36 16 0
37 18 0
38 19 0
39 20 0
40 21 0
2 46 47 10000 40
0 19 0
1 20 0
2 21 0
3 22 0
4 23 0
5 24 0
6 26 0
8 28 0
9 29 0
10 30 0
11 31 0
12 32 0
13 33 0
14 34 0
16 35 0
17 36 0
18 37 0
19 38 0
20 1 0
20 42 0
21 2 0
21 43 0
22 3 0
22 44 0
23 5 0
24 6 0
25 7 0
26 8 0
27 9 0
29 12 0
30 13 0
31 14 0
32 15 0
34 16 0
35 18 0
37 19 0
38 20 0
39 21 0
40 22 0
41 24 0
2 48 49 10000 47
0 23 0
1 24 0
2 26 0
3 27 0
4 28 0
5 29 0
6 30 0
7 32 0
8 33 0
9 34 0
10 35 0
11 36 0
12 39 0
13 40 0
14 41 0
15 44 0
16 0 0
16 45 0
17 1 0
17 46 0
18 47 0
19 2 0
19 48 0
20 3 0
20 49 0
21 4 0
21 50 0
22 5 0
23 6 0
24 7 0
25 8 0
26 9 0
27 10 0
28 12 0
29 13 0
30 15 0
31 16 0
32 17 0
33 18 0
34 19 0
35 20 0
36 21 0
37 23 0
38 24 0
39 25 0
40 26 0
41 27 0
2 50 51 10000 39
0 16 0
1 18 0
2 19 0
3 20 0
4 21 0
5 22 0
6 23 0
7 24 0
8 25 0
9 26 0
10 27 0
11 28 0
12 29 0
13 30 0
14 32 0
15 33 0
16 34 0
17 35 0
18 36 0
19 37 0
21 0 0
23 1 0
23 38 0
24 2 0
24 39 0
25 4 0
26 5 0
27 7 0
28 8 0
29 9 0
31 10 0
33 12 0
34 13 0
35 14 0
37 15 0
40 16 0
41 17 0
42 19 0
43 20 0
2 52 53 10000 50
0 21 0
1 22 0
2 23 0
3 24 0
6 26 0
7 27 0
8 28 0
9 29 0
10 30 0
11 31 0
12 32 0
13 33 0
14 34 0
15 35 0
16 36 0
17 37 0
18 38 0
19 39 0
20 40 0
21 0 0
21 41 0
22 1 0
22 42 0
23 2 0
23 43 0
24 44 0
25 3 0
25 45 0
26 4 0
26 46 0
27 5 0
28 6 0
29 7 0
31 9 0
32 10 0
33 11 0
34 12 0
35 13 0
37 14 0
38 15 0
39 16 0
40 17 0
41 18 0
42 19 0
43 20 0
44 21 0
45 22 0
46 23 0
47 24 0
48 25 0
2 54 55 10000 43
0 17 0
1 18 0
2 19 0
3 20 0
5 21 0
6 22 0
7 23 0
12 24 0
14 25 0
15 26 0
16 28 0
17 29 0
18 31 0
19 32 0
20 33 0
21 0 0
21 34 0
22 1 0
22 35 0
23 2 0
23 36 0
24 3 0
24 37 0
25 4 0
25 38 0
26 39 0
27 5 0
28 6 0
29 7 0
30 8 0
31 9 0
33 10 0
34 11 0
35 12 0
37 13 0
38 14 0
39 15 0
42 16 0
43 17 0
44 18 0
45 19 0
46 20 0
48 21 0
2 56 57 10000 52
0 23 0
1 24 0
3 25 0
4 26 0
5 27 0
6 28 0
7 29 0
8 30 0
9 31 0
10 32 0
11 33 0
12 34 0
13 35 0
14 36 0
15 37 0
16 38 0
17 40 0
18 41 0
19 42 0
20 43 0
21 44 0
22 0 0
22 45 0
23 1 0
23 46 0
24 2 0
24 47 0
25 4 0
25 49 0
26 5 0
26 50 0
27 7 0
28 8 0
29 9 0
30 10 0
31 11 0
32 12 0
33 13 0
34 14 0
35 15 0
36 16 0
37 17 0
38 18 0
39 19 0
40 20 0
41 21 0
42 22 0
43 23 0
44 24 0
46 25 0
47 26 0
48 27 0
2 58 59 10000 43
0 24 0
1 25 0
2 26 0
3 27 0
4 28 0
5 29 0
6 30 0
7 31 0
8 32 0
9 33 0
10 34 0
11 35 0
13 37 0
14 41 0
15 42 0
16 43 0
17 44 0
18 0 0
18 45 0
19 2 0
19 46 0
20 3 0
20 47 0
21 5 0
21 49 0
22 7 0
23 8 0
24 9 0
25 10 0
26 14 0
27 15 0
28 16 0
29 17 0
30 18 0
31 20 0
32 21 0
33 22 0
34 23 0
35 24 0
36 25 0
37 26 0
38 27 0
39 28 0
2 60 61 10000 44
0 21 0
1 22 0
2 23 0
3 24 0
4 25 0
5 26 0
6 28 0
7 30 0
8 31 0
9 33 0
10 34 0
11 35 0
12 36 0
13 37 0
14 40 0
15 41 0
16 42 0
17 43 0
18 0 0
19 1 0
19 44 0
20 45 0
21 2 0
21 46 0
22 3 0
22 47 0
23 48 0
24 5 0
25 6 0
26 7 0
27 8 0
28 9 0
29 10 0
30 11 0
31 12 0
32 13 0
33 15 0
34 18 0
35 19 0
36 20 0
37 21 0
38 22 0
39 23 0
40 25 0
2 62 63 10000 41
0 21 0
1 23 0
2 24 0
3 25 0
4 26 0
6 27 0
7 28 0
9 29 0
10 30 0
11 31 0
12 32 0
13 33 0
14 34 0
15 35 0
20 37 0
21 0 0
21 38 0
22 2 0
22 39 0
23 3 0
23 40 0
24 4 0
25 5 0
25 41 0
27 7 0
28 8 0
29 9 0
30 10 0
31 12 0
32 13 0
33 14 0
34 16 0
35 17 0
36 18 0
37 19 0
38 20 0
39 21 0
40 22 0
41 23 0
42 24 0
43 26 0
2 64 65 10000 52
0 23 0
1 24 0
2 25 0
3 26 0
4 27 0
5 29 0
6 30 0
7 31 0
8 32 0
9 33 0
10 34 0
11 35 0
12 36 0
13 37 0
14 38 0
15 40 0
16 41 0
17 42 0
18 45 0
19 0 0
19 46 0
20 2 0
20 48 0
21 3 0
21 49 0
22 4 0
22 50 0
23 5 0
23 51 0
24 6 0
25 7 0
26 8 0
27 9 0
28 10 0
29 11 0
30 12 0
31 13 0
32 14 0
33 15 0
34 16 0
35 17 0
36 18 0
37 19 0
38 20 0
39 21 0
40 22 0
41 23 0
42 24 0
43 25 0
44 26 0
45 27 0
46 28 0
2 66 67 10000 45
1 23 0
2 24 0
3 25 0
4 26 0
5 28 0
6 29 0
7 30 0
8 31 0
9 32 0
10 33 0
11 35 0
12 36 0
13 37 0
14 38 0
15 39 0
16 40 0
18 41 0
19 42 0
20 0 0
20 43 0
21 1 0
21 44 0
22 3 0
22 46 0
23 5 0
23 48 0
24 6 0
25 7 0
26 8 0
27 9 0
28 10 0
29 11 0
30 12 0
31 13 0
32 14 0
33 15 0
34 16 0
35 17 0
36 18 0
37 19 0
38 21 0
39 22 0
41 23 0
42 24 0
43 25 0
2 68 69 10000 43
0 22 0
1 23 0
2 24 0
3 25 0
4 26 0
5 27 0
6 28 0
7 30 0
8 31 0
10 32 0
11 33 0
12 34 0
13 35 0
14 36 0
15 37 0
16 38 0
17 39 0
19 40 0
20 41 0
21 0 0
21 42 0
22 1 0
22 43 0
23 4 0
23 45 0
24 5 0
24 46 0
25 6 0
26 7 0
28 8 0
29 9 0
30 10 0
31 12 0
32 13 0
33 14 0
35 15 0
36 16 0
37 17 0
38 18 0
39 20 0
40 21 0
41 22 0
42 25 0
2 70 71 10000 47
0 22 0
1 23 0
2 24 0
3 25 0
4 26 0
6 27 0
7 29 0
8 30 0
9 31 0
10 32 0
11 33 0
12 34 0
13 35 0
14 36 0
15 37 0
16 38 0
17 39 0
18 40 0
19 41 0
20 42 0
21 43 0
22 0 0
22 44 0
23 1 0
23 45 0
24 2 0
25 3 0
25 46 0
26 6 0
27 7 0
28 9 0
29 10 0
30 11 0
31 12 0
32 14 0
33 15 0
34 16 0
35 17 0
36 18 0
37 19 0
38 20 0
40 21 0
41 22 0
42 23 0
43 24 0
44 25 0
45 26 0
2 72 73 10000 42
0 19 0
1 20 0
2 21 0
3 22 0
4 23 0
5 24 0
6 25 0
7 26 0
8 27 0
9 28 0
10 29 0
11 30 0
12 31 0
13 32 0
14 33 0
15 35 0
16 37 0
17 0 0
17 38 0
18 39 0
19 1 0
19 40 0
20 2 0
20 41 0
21 3 0
22 5 0
23 6 0
24 8 0
25 9 0
26 10 0
27 11 0
29 12 0
31 13 0
33 14 0
34 15 0
36 16 0
37 17 0
38 18 0
39 19 0
40 20 0
41 21 0
42 22 0
2 74 75 10000 43
0 20 0
1 21 0
2 22 0
3 23 0
4 24 0
5 25 0
6 26 0
7 28 0
8 29 0
9 31 0
10 32 0
11 33 0
12 34 0
13 36 0
14 37 0
15 38 0
16 40 0
17 41 0
18 42 0
19 0 0
19 43 0
20 1 0
20 44 0
21 3 0
21 46 0
22 47 0
23 6 0
24 7 0
25 8 0
26 10 0
27 11 0
28 13 0
29 14 0
31 15 0
32 16 0
33 17 0
34 18 0
35 19 0
36 20 0
37 21 0
38 22 0
39 23 0
40 24 0
2 76 77 10000 38
1 16 0
2 17 0
3 19 0
4 21 0
5 22 0
7 23 0
8 24 0
9 25 0
10 26 0
11 27 0
12 29 0
13 31 0
14 32 0
15 33 0
16 34 0
17 35 0
18 0 0
18 36 0
19 1 0
19 37 0
20 2 0
20 39 0
21 40 0
22 3 0
22 41 0
23 4 0
25 6 0
26 9 0
27 10 0
29 11 0
30 12 0
31 13 0
32 14 0
36 15 0
38 16 0
39 17 0
40 18 0
41 19 0
2 78 79 10000 42
1 21 0
2 22 0
3 23 0
5 24 0
6 25 0
7 26 0
9 27 0
10 28 0
11 29 0
12 30 0
14 31 0
15 32 0
16 33 0
17 34 0
20 35 0
21 36 0
22 37 0
23 0 0
24 1 0
24 38 0
25 2 0
26 3 0
27 5 0
28 6 0
29 7 0
30 8 0
31 9 0
32 10 0
33 11 0
34 12 0
36 13 0
37 14 0
38 15 0
39 16 0
40 17 0
41 18 0
43 19 0
44 20 0
46 21 0
47 22 0
48 23 0
49 24 0
2 80 81 10000 38
0 16 0
2 17 0
3 18 0
4 19 0
5 20 0
7 21 0
8 22 0
9 23 0
10 24 0
11 26 0
12 28 0
13 29 0
14 31 0
16 32 0
17 0 0
17 34 0
18 1 0
18 35 0
19 2 0
19 36 0
20 3 0
20 37 0
21 4 0
21 38 0
22 6 0
24 7 0
25 8 0
26 9 0
27 10 0
28 11 0
32 12 0
33 13 0
34 14 0
35 16 0
37 17 0
38 18 0
39 19 0
40 20 0
2 82 83 10000 42
0 18 0
1 19 0
2 20 0
3 21 0
4 22 0
5 23 0
6 24 0
7 25 0
8 26 0
9 27 0
10 28 0
11 29 0
13 30 0
14 31 0
15 32 0
18 33 0
20 35 0
22 36 0
24 0 0
24 37 0
25 38 0
26 1 0
26 39 0
27 2 0
27 40 0
28 3 0
29 4 0
30 5 0
31 7 0
32 8 0
33 9 0
34 10 0
35 11 0
36 13 0
37 14 0
38 15 0
39 16 0
40 18 0
41 19 0
42 20 0
43 21 0
44 23 0
2 84 85 10000 42
0 18 0
1 19 0
2 20 0
3 21 0
4 22 0
5 23 0
7 24 0
8 25 0
9 26 0
11 27 0
12 28 0
13 29 0
14 31 0
15 32 0
16 33 0
17 34 0
18 35 0
19 36 0
21 37 0
22 39 0
23 40 0
24 41 0
25 1 0
25 42 0
26 2 0
26 43 0
28 4 0
30 5 0
31 6 0
32 8 0
33 9 0
34 10 0
35 11 0
36 12 0
37 13 0
38 14 0
39 17 0
40 19 0
41 20 0
42 21 0
43 22 0
44 23 0
2 86 87 10000 55
0 24 0
1 25 0
2 26 0
3 28 0
4 29 0
5 30 0
6 31 0
7 32 0
8 33 0
9 34 0
10 35 0
11 36 0
12 37 0
13 38 0
14 39 0
15 40 0
16 41 0
17 42 0
18 43 0
19 44 0
20 45 0
21 0 0
21 46 0
22 1 0
22 47 0
23 2 0
23 48 0
24 3 0
24 49 0
25 4 0
25 50 0
26 5 0
26 51 0
27 6 0
28 7 0
29 8 0
30 9 0
31 10 0
32 12 0
33 13 0
34 14 0
35 15 0
36 16 0
37 17 0
38 18 0
39 19 0
40 20 0
41 21 0
42 22 0
43 23 0
44 24 0
45 25 0
46 26 0
47 27 0
48 28 0
2 88 89 10000 36
0 20 0
1 22 0
2 23 0
3 24 0
4 25 0
5 26 0
6 27 0
7 28 0
8 29 0
12 30 0
13 31 0
14 32 0
15 33 0
16 34 0
19 0 0
20 1 0
20 36 0
21 3 0
21 38 0
22 4 0
22 39 0
23 5 0
24 7 0
25 8 0
26 9 0
27 11 0
28 14 0
30 15 0
31 16 0
33 18 0
34 19 0
35 20 0
36 21 0
37 22 0
38 23 0
39 25 0
2 90 91 10000 43
0 17 0
1 18 0
2 19 0
3 20 0
4 21 0
5 22 0
6 23 0
7 24 0
8 25 0
9 26 0
10 27 0
11 28 0
12 29 0
13 30 0
14 31 0
15 32 0
16 34 0
17 35 0
19 38 0
20 39 0
21 0 0
21 40 0
22 1 0
22 41 0
23 2 0
23 42 0
24 3 0
24 43 0
25 4 0
26 5 0
28 6 0
29 7 0
30 8 0
31 10 0
33 11 0
34 12 0
37 13 0
38 14 0
39 15 0
40 17 0
41 19 0
42 20 0
43 21 0
2 92 93 10000 52
0 23 0
1 24 0
2 25 0
3 26 0
4 27 0
5 28 0
6 29 0
7 30 0
8 31 0
9 32 0
10 33 0
11 34 0
12 36 0
13 37 0
14 40 0
15 41 0
16 42 0
17 43 0
18 44 0
19 45 0
20 0 0
20 46 0
21 1 0
21 47 0
22 2 0
22 48 0
23 3 0
23 49 0
24 4 0
24 50 0
25 5 0
25 51 0
26 6 0
27 7 0
28 8 0
29 9 0
30 10 0
31 11 0
32 13 0
33 15 0
34 16 0
35 17 0
36 18 0
37 19 0
38 21 0
39 22 0
40 23 0
41 24 0
42 25 0
43 26 0
44 27 0
45 28 0
2 94 95 10000 39
1 19 0
2 20 0
3 21 0
4 22 0
5 23 0
8 25 0
9 26 0
10 27 0
12 28 0
13 29 0
15 31 0
16 32 0
17 33 0
18 34 0
19 35 0
20 0 0
20 36 0
21 1 0
22 2 0
22 37 0
23 4 0
24 5 0
24 39 0
25 6 0
26 7 0
28 8 0
29 9 0
31 10 0
32 11 0
33 12 0
35 13 0
36 14 0
37 15 0
39 16 0
40 17 0
42 19 0
43 20 0
44 21 0
45 23 0
2 96 97 10000 51
0 23 0
1 24 0
2 25 0
3 26 0
4 29 0
5 30 0
6 31 0
7 33 0
8 34 0
9 35 0
10 36 0
11 37 0
12 38 0
13 39 0
14 40 0
15 41 0
16 42 0
17 43 0
18 45 0
19 0 0
19 46 0
20 1 0
20 47 0
21 2 0
21 48 0
22 3 0
22 49 0
23 4 0
23 50 0
24 6 0
25 7 0
26 8 0
27 9 0
28 10 0
29 11 0
30 12 0
31 13 0
32 15 0
33 16 0
34 17 0
35 18 0
36 19 0
37 20 0
38 21 0
39 22 0
40 23 0
41 24 0
42 25 0
43 26 0
44 27 0
45 28 0
2 98 99 10000 38
0 22 0
1 23 0
3 24 0
5 25 0
7 26 0
9 28 0
10 30 0
11 31 0
12 32 0
14 36 0
16 37 0
17 38 0
18 0 0
18 39 0
19 40 0
20 1 0
20 41 0
21 2 0
21 42 0
22 3 0
22 43 0
23 5 0
24 6 0
25 8 0
26 9 0
27 10 0
28 11 0
29 12 0
30 13 0
31 14 0
32 16 0
33 17 0
34 18 0
35 20 0
36 21 0
37 23 0
39 24 0
41 25 0
2 0 44 1000 0
2 2 48 1000 0
2 2 86 1000 0
2 2 78 1000 0
2 2 64 1000 0
2 2 32 1000 0
2 2 30 1000 0
2 2 60 1000 0
2 2 16 1000 0
2 2 84 1000 0
2 4 52 1000 0
2 6 92 1000 0
2 6 50 1000 0
2 8 74 1000 0
2 8 68 1000 0
2 10 18 1000 0
2 10 34 1000 0
2 12 48 1000 0
2 14 44 1000 0
2 14 92 1000 0
2 14 58 1000 0
2 16 24 1000 0
2 16 90 1000 0
2 18 34 1000 0
2 20 68 1000 0
2 22 38 1000 0
2 22 94 1000 0
2 24 56 1000 0
2 26 62 1000 0
2 26 30 1000 0
2 32 36 1000 0
2 32 44 1000 0
2 34 76 1000 0
2 36 68 1000 0
2 36 60 1000 0
2 38 88 1000 0
2 40 80 1000 0
2 42 60 1000 0
2 44 58 1000 0
2 46 78 1000 0
2 48 74 1000 0
2 52 72 1000 0
2 54 80 1000 0
2 56 90 1000 0
2 60 70 1000 0
2 66 92 1000 0
2 0 45 1000 0
2 2 49 1000 0
2 2 87 1000 0
2 2 79 1000 0
2 2 65 1000 0
2 2 33 1000 0
2 2 31 1000 0
2 2 61 1000 0
2 2 17 1000 0
2 2 85 1000 0
2 4 53 1000 0
2 6 93 1000 0
2 6 51 1000 0
2 8 75 1000 0
2 8 69 1000 0
2 10 19 1000 0
2 10 35 1000 0
2 12 49 1000 0
2 14 45 1000 0
2 14 93 1000 0
2 14 59 1000 0
2 16 25 1000 0
2 16 91 1000 0
2 18 35 1000 0
2 20 69 1000 0
2 22 39 1000 0
2 22 95 1000 0
2 24 57 1000 0
2 26 63 1000 0
2 26 31 1000 0
2 32 37 1000 0
2 32 45 1000 0
2 34 77 1000 0
2 36 69 1000 0
2 36 61 1000 0
2 38 89 1000 0
2 40 81 1000 0
2 42 61 1000 0
2 44 59 1000 0
2 46 79 1000 0
2 48 75 1000 0
2 52 73 1000 0
2 54 81 1000 0
2 56 91 1000 0
2 60 71 1000 0
2 66 93 1000 0
2 1 44 1000 0
2 3 48 1000 0
2 3 86 1000 0
2 3 78 1000 0
2 3 64 1000 0
2 3 32 1000 0
2 3 30 1000 0
2 3 60 1000 0
2 3 16 1000 0
2 3 84 1000 0
2 5 52 1000 0
2 7 92 1000 0
2 7 50 1000 0
2 9 74 1000 0
2 9 68 1000 0
2 11 18 1000 0
2 11 34 1000 0
2 13 48 1000 0
2 15 44 1000 0
2 15 92 1000 0
2 15 58 1000 0
2 17 24 1000 0
2 17 90 1000 0
2 19 34 1000 0
2 21 68 1000 0
2 23 38 1000 0
2 23 94 1000 0
2 25 56 1000 0
2 27 62 1000 0
2 27 30 1000 0
2 33 36 1000 0
2 33 44 1000 0
2 35 76 1000 0
2 37 68 1000 0
2 37 60 1000 0
2 39 88 1000 0
2 41 80 1000 0
2 43 60 1000 0
2 45 58 1000 0
2 47 78 1000 0
2 49 74 1000 0
2 53 72 1000 0
2 55 80 1000 0
2 57 90 1000 0
2 61 70 1000 0
2 67 92 1000 0
2 1 45 1000 0
2 3 49 1000 0
2 3 87 1000 0
2 3 79 1000 0
2 3 65 1000 0
2 3 33 1000 0
2 3 31 1000 0
2 3 61 1000 0
2 3 17 1000 0
2 3 85 1000 0
2 5 53 1000 0
2 7 93 1000 0
2 7 51 1000 0
2 9 75 1000 0
2 9 69 1000 0
2 11 19 1000 0
2 11 35 1000 0
2 13 49 1000 0
2 15 45 1000 0
2 15 93 1000 0
2 15 59 1000 0
2 17 25 1000 0
2 17 91 1000 0
2 19 35 1000 0
2 21 69 1000 0
2 23 39 1000 0
2 23 95 1000 0
2 25 57 1000 0
2 27 63 1000 0
2 27 31 1000 0
2 33 37 1000 0
2 33 45 1000 0
2 35 77 1000 0
2 37 69 1000 0
2 37 61 1000 0
2 39 89 1000 0
2 41 81 1000 0
2 43 61 1000 0
2 45 59 1000 0
2 47 79 1000 0
2 49 75 1000 0
2 53 73 1000 0
2 55 81 1000 0
2 57 91 1000 0
2 61 71 1000 0
2 67 93 1000 0
2 0 17 1000 40
0 0 0
1 1 0
2 2 0
3 3 0
4 4 0
5 5 0
6 6 0
7 7 0
8 8 0
11 9 0
13 10 0
14 11 0
15 12 0
16 13 0
20 14 0
21 15 0
22 16 0
23 17 0
24 18 0
25 19 0
26 20 0
28 21 0
29 22 0
30 23 0
31 24 0
32 25 0
33 26 0
35 27 0
38 28 0
39 29 0
40 30 0
41 31 0
42 32 0
44 33 0
45 34 0
46 35 0
48 36 0
49 37 0
50 38 0
51 39 0
2 2 73 1000 42
0 0 0
2 1 0
3 2 0
4 3 0
5 4 0
6 5 0
7 6 0
8 7 0
10 8 0
11 9 0
12 10 0
13 11 0
15 12 0
17 13 0
19 14 0
20 15 0
22 16 0
23 17 0
24 18 0
25 19 0
26 20 0
27 21 0
28 22 0
29 23 0
30 24 0
31 25 0
32 26 0
33 27 0
34 28 0
35 29 0
36 30 0
37 31 0
38 32 0
39 33 0
40 34 0
42 35 0
43 36 0
44 37 0
46 38 0
47 40 0
48 41 0
50 42 0
2 2 77 1000 41
0 0 0
1 1 0
3 2 0
5 3 0
6 4 0
9 5 0
10 6 0
11 7 0
12 8 0
13 9 0
14 10 0
16 11 0
17 12 0
18 13 0
19 14 0
23 15 0
25 16 0
26 17 0
27 18 0
28 19 0
29 20 0
30 21 0
31 22 0
33 23 0
34 24 0
35 25 0
36 26 0
37 27 0
38 28 0
39 29 0
40 30 0
41 31 0
42 32 0
43 33 0
44 34 0
45 35 0
46 36 0
47 38 0
48 39 0
49 40 0
50 41 0
2 2 27 1000 46
0 0 0
2 1 0
3 2 0
4 3 0
5 4 0
6 5 0
7 6 0
8 7 0
10 8 0
11 9 0
12 10 0
14 11 0
15 12 0
16 13 0
17 14 0
18 15 0
19 16 0
20 17 0
21 18 0
22 19 0
23 20 0
24 21 0
25 22 0
26 23 0
27 24 0
28 25 0
29 26 0
30 27 0
31 28 0
32 29 0
33 30 0
34 31 0
35 32 0
36 33 0
37 34 0
38 35 0
39 36 0
40 37 0
41 38 0
43 39 0
44 40 0
45 41 0
46 42 0
47 44 0
48 45 0
50 46 0
2 2 93 1000 51
0 0 0
1 1 0
2 2 0
3 3 0
4 4 0
5 5 0
6 6 0
7 7 0
8 8 0
9 9 0
10 10 0
11 11 0
12 12 0
13 13 0
14 14 0
15 15 0
16 16 0
17 17 0
18 18 0
19 19 0
20 20 0
21 21 0
22 22 0
23 23 0
24 24 0
25 25 0
26 26 0
27 27 0
28 28 0
29 29 0
30 30 0
31 31 0
32 32 0
33 33 0
34 34 0
35 35 0
36 36 0
37 37 0
38 38 0
39 39 0
40 40 0
41 41 0
42 42 0
43 43 0
44 44 0
45 45 0
46 46 0
47 48 0
48 49 0
49 50 0
50 51 0
2 4 73 1000 39
0 0 0
2 1 0
3 2 0
4 3 0
5 4 0
6 5 0
7 6 0
8 7 0
10 8 0
11 9 0
12 11 0
16 14 0
17 15 0
19 16 0
20 17 0
21 18 0
22 19 0
23 20 0
24 21 0
25 23 0
26 24 0
27 25 0
28 26 0
29 27 0
30 28 0
31 29 0
32 30 0
33 31 0
34 32 0
35 33 0
36 34 0
38 35 0
39 36 0
40 37 0
42 38 0
43 39 0
44 40 0
45 41 0
47 42 0
2 6 39 1000 34
0 0 0
1 2 0
2 3 0
3 4 0
4 5 0
6 7 0
7 8 0
9 9 0
10 10 0
11 12 0
12 13 0
13 14 0
15 15 0
17 16 0
19 18 0
21 20 0
22 21 0
23 22 0
24 23 0
25 24 0
26 25 0
27 26 0
28 27 0
30 28 0
31 29 0
32 30 0
35 31 0
36 32 0
37 33 0
40 34 0
41 35 0
42 37 0
43 38 0
44 39 0
2 6 23 1000 43
0 0 0
1 2 0
2 3 0
3 4 0
4 5 0
5 7 0
6 8 0
7 9 0
8 10 0
9 11 0
10 12 0
11 14 0
12 15 0
13 16 0
14 17 0
15 18 0
16 19 0
17 20 0
18 22 0
19 23 0
20 25 0
21 26 0
22 27 0
23 28 0
24 29 0
25 30 0
27 31 0
28 32 0
29 33 0
30 34 0
31 35 0
32 36 0
33 37 0
34 38 0
36 39 0
37 40 0
38 41 0
39 42 0
40 43 0
41 44 0
42 46 0
43 47 0
44 48 0
2 6 45 1000 35
0 0 0
1 2 0
3 3 0
4 4 0
5 6 0
7 7 0
10 8 0
11 10 0
12 11 0
13 12 0
14 13 0
15 14 0
16 15 0
18 17 0
19 18 0
20 20 0
21 21 0
23 22 0
24 23 0
25 24 0
26 25 0
27 26 0
28 27 0
29 28 0
30 29 0
31 30 0
32 31 0
35 32 0
37 33 0
38 34 0
39 35 0
40 36 0
42 38 0
43 39 0
44 40 0
2 6 83 1000 37
1 0 0
3 1 0
4 2 0
5 3 0
6 4 0
7 5 0
8 6 0
10 7 0
11 9 0
12 10 0
13 11 0
14 12 0
15 13 0
16 14 0
17 15 0
18 17 0
19 18 0
20 20 0
21 21 0
22 22 0
23 23 0
24 24 0
25 25 0
26 26 0
27 27 0
28 28 0
29 29 0
31 30 0
32 31 0
33 32 0
36 33 0
38 34 0
39 35 0
41 36 0
42 37 0
43 38 0
44 39 0
2 8 67 1000 41
0 0 0
1 1 0
2 2 0
3 3 0
4 4 0
5 5 0
6 6 0
7 7 0
8 8 0
9 9 0
10 11 0
11 13 0
12 14 0
13 16 0
14 17 0
15 18 0
16 21 0
18 22 0
20 23 0
21 24 0
22 25 0
23 27 0
24 28 0
25 29 0
26 30 0
27 31 0
28 32 0
29 33 0
30 34 0
31 35 0
32 36 0
33 37 0
34 39 0
35 40 0
37 41 0
38 42 0
39 43 0
40 44 0
41 46 0
42 47 0
43 48 0
2 24 69 1000 42
0 0 0
1 1 0
2 2 0
3 3 0
4 4 0
5 5 0
6 6 0
7 7 0
9 9 0
10 10 0
11 11 0
12 12 0
13 13 0
14 14 0
16 15 0
17 16 0
18 17 0
19 19 0
20 20 0
21 21 0
22 22 0
23 24 0
24 25 0
25 26 0
26 27 0
27 28 0
28 29 0
29 30 0
30 31 0
32 32 0
33 33 0
34 34 0
35 35 0
36 36 0
37 38 0
38 39 0
40 41 0
41 42 0
42 43 0
44 44 0
45 45 0
46 46 0
2 26 81 1000 31
0 1 0
1 2 0
2 3 0
3 4 0
4 5 0
5 6 0
7 7 0
8 8 0
10 9 0
11 10 0
16 12 0
17 13 0
18 14 0
19 15 0
20 16 0
21 18 0
22 19 0
23 20 0
25 21 0
26 22 0
27 24 0
29 25 0
30 26 0
31 28 0
32 29 0
33 30 0
36 32 0
37 33 0
38 34 0
39 35 0
40 36 0
2 26 55 1000 32
0 1 0
1 2 0
2 3 0
3 4 0
5 5 0
6 6 0
7 7 0
8 8 0
9 9 0
10 10 0
11 11 0
12 12 0
13 13 0
14 14 0
15 15 0
19 16 0
20 17 0
21 20 0
23 21 0
24 22 0
25 23 0
29 24 0
31 26 0
32 27 0
33 28 0
34 29 0
35 31 0
36 32 0
37 33 0
38 34 0
39 35 0
40 36 0
2 26 71 1000 38
0 1 0
1 2 0
2 3 0
3 4 0
4 5 0
5 6 0
6 7 0
7 8 0
8 9 0
9 10 0
10 12 0
11 13 0
12 14 0
13 16 0
14 17 0
15 18 0
16 19 0
17 20 0
19 21 0
20 22 0
21 25 0
22 26 0
24 27 0
25 28 0
26 29 0
27 31 0
28 32 0
29 33 0
30 34 0
31 36 0
32 37 0
33 38 0
34 39 0
35 41 0
36 42 0
37 43 0
38 44 0
39 45 0
2 28 37 1000 34
0 0 0
1 1 0
3 2 0
4 4 0
5 5 0
7 7 0
8 8 0
10 10 0
11 11 0
12 12 0
13 13 0
14 15 0
15 16 0
16 17 0
17 18 0
18 19 0
19 20 0
20 21 0
21 22 0
22 23 0
23 24 0
24 25 0
25 26 0
27 27 0
28 29 0
30 32 0
31 33 0
32 34 0
34 36 0
35 37 0
36 39 0
37 41 0
39 42 0
40 43 0
2 32 41 1000 34
1 0 0
2 1 0
4 2 0
6 3 0
8 4 0
9 5 0
10 6 0
11 7 0
12 8 0
13 9 0
15 11 0
16 12 0
17 14 0
19 15 0
20 16 0
21 17 0
22 18 0
23 20 0
24 21 0
25 22 0
26 24 0
27 25 0
28 26 0
29 28 0
30 29 0
31 31 0
34 32 0
35 33 0
37 34 0
38 36 0
39 38 0
40 39 0
41 40 0
42 41 0
2 36 73 1000 35
0 0 0
2 1 0
3 2 0
4 3 0
5 4 0
6 5 0
7 6 0
9 8 0
10 9 0
11 10 0
12 11 0
13 12 0
15 13 0
16 14 0
17 15 0
19 16 0
20 17 0
21 18 0
22 19 0
23 20 0
24 22 0
25 23 0
26 24 0
27 25 0
28 26 0
29 27 0
30 29 0
31 31 0
32 32 0
33 34 0
35 35 0
36 36 0
37 37 0
38 39 0
40 42 0
2 44 99 1000 36
0 0 0
2 1 0
3 3 0
4 4 0
5 5 0
6 7 0
7 8 0
8 9 0
9 11 0
10 12 0
11 13 0
12 14 0
13 15 0
14 17 0
15 18 0
16 19 0
17 20 0
18 21 0
19 22 0
21 24 0
22 25 0
24 26 0
26 28 0
27 29 0
28 30 0
29 32 0
30 33 0
31 34 0
32 35 0
34 36 0
36 37 0
37 39 0
38 40 0
39 41 0
40 42 0
41 43 0
2 72 75 1000 41
0 2 0
1 3 0
3 4 0
4 5 0
5 6 0
6 7 0
7 8 0
9 9 0
10 10 0
11 11 0
12 12 0
13 13 0
14 14 0
15 16 0
16 18 0
17 20 0
18 21 0
19 22 0
20 23 0
21 24 0
22 26 0
23 27 0
24 30 0
25 31 0
26 32 0
27 33 0
28 34 0
29 35 0
30 36 0
31 37 0
32 38 0
33 39 0
34 40 0
35 41 0
36 42 0
37 43 0
38 44 0
39 45 0
40 46 0
41 47 0
42 48 0
2 82 93 1000 45
0 0 0
1 1 0
2 2 0
3 3 0
4 4 0
5 5 0
6 6 0
7 7 0
8 8 0
9 9 0
10 10 0
11 11 0
12 12 0
13 13 0
14 14 0
15 15 0
16 16 0
17 17 0
18 18 0
19 19 0
20 21 0
21 22 0
22 23 0
23 24 0
24 25 0
25 26 0
26 27 0
27 28 0
28 30 0
29 31 0
30 32 0
31 35 0
32 36 0
33 37 0
34 38 0
35 39 0
36 41 0
37 42 0
38 43 0
39 44 0
40 46 0
41 47 0
42 48 0
43 49 0
44 51 0
2 86 89 1000 39
0 0 0
1 1 0
2 2 0
3 4 0
4 5 0
5 6 0
6 7 0
7 8 0
8 9 0
9 10 0
10 11 0
11 12 0
12 13 0
13 14 0
15 15 0
16 16 0
18 17 0
19 18 0
20 19 0
21 20 0
22 21 0
23 22 0
24 23 0
25 24 0
26 25 0
27 26 0
28 27 0
29 28 0
30 29 0
34 30 0
35 31 0
37 32 0
38 33 0
39 34 0
41 35 0
45 36 0
46 37 0
47 38 0
48 39 0
2 92 97 1000 46
0 0 0
1 1 0
2 2 0
3 3 0
4 4 0
5 5 0
6 6 0
7 7 0
8 8 0
9 9 0
10 10 0
11 11 0
12 13 0
13 14 0
14 17 0
15 18 0
16 19 0
17 20 0
18 21 0
19 22 0
20 23 0
21 24 0
22 25 0
23 26 0
24 27 0
25 28 0
26 29 0
27 30 0
28 31 0
29 32 0
30 33 0
31 34 0
32 36 0
33 38 0
34 39 0
35 40 0
36 41 0
37 42 0
38 44 0
39 45 0
40 46 0
41 47 0
42 48 0
43 49 0
44 50 0
45 51 0
2 1 16 1000 37
0 0 0
1 1 0
2 2 0
3 3 0
4 4 0
5 8 0
6 9 0
7 10 0
8 12 0
9 13 0
10 15 0
11 16 0
12 17 0
13 19 0
14 20 0
15 22 0
16 23 0
18 24 0
19 25 0
20 26 0
21 27 0
22 28 0
24 29 0
25 30 0
26 31 0
29 32 0
30 34 0
31 35 0
32 37 0
33 38 0
34 39 0
35 40 0
36 41 0
37 42 0
38 43 0
40 44 0
41 45 0
2 3 72 1000 37
2 0 0
3 1 0
4 2 0
5 4 0
6 7 0
7 8 0
8 9 0
9 10 0
10 11 0
11 12 0
12 13 0
13 14 0
16 15 0
18 16 0
20 17 0
21 18 0
22 19 0
23 20 0
25 22 0
26 23 0
29 24 0
30 25 0
31 26 0
32 27 0
33 28 0
34 29 0
35 30 0
36 32 0
37 33 0
38 34 0
39 35 0
40 36 0
41 37 0
42 38 0
43 39 0
44 40 0
45 42 0
2 3 76 1000 36
1 0 0
2 1 0
3 2 0
6 6 0
7 7 0
8 8 0
9 9 0
10 10 0
11 11 0
13 12 0
15 13 0
16 14 0
17 15 0
18 16 0
19 17 0
20 18 0
21 19 0
23 20 0
24 22 0
25 23 0
27 24 0
29 25 0
32 26 0
33 27 0
34 28 0
35 29 0
36 31 0
37 32 0
38 33 0
39 34 0
40 35 0
41 36 0
42 37 0
43 38 0
44 39 0
45 41 0
2 3 26 1000 36
1 0 0
2 1 0
3 2 0
4 3 0
5 5 0
6 8 0
7 9 0
9 10 0
10 11 0
11 12 0
13 13 0
14 14 0
15 15 0
16 16 0
17 17 0
18 18 0
19 19 0
20 20 0
23 21 0
24 23 0
25 24 0
26 25 0
27 26 0
29 27 0
30 28 0
31 29 0
32 30 0
34 31 0
35 32 0
36 34 0
38 35 0
39 36 0
40 37 0
41 38 0
42 39 0
43 40 0
2 3 92 1000 40
0 0 0
1 1 0
2 2 0
3 3 0
4 4 0
5 6 0
6 9 0
7 10 0
8 11 0
10 12 0
11 13 0
14 14 0
15 15 0
16 16 0
17 17 0
18 18 0
19 19 0
20 20 0
21 21 0
22 22 0
23 23 0
24 25 0
25 26 0
26 27 0
27 28 0
28 29 0
29 30 0
30 31 0
32 32 0
34 33 0
35 34 0
36 36 0
37 37 0
39 38 0
40 39 0
41 40 0
42 41 0
43 42 0
44 43 0
45 45 0
2 5 72 1000 38
2 0 0
3 1 0
4 2 0
5 3 0
6 4 0
7 5 0
8 6 0
9 7 0
10 8 0
11 9 0
12 10 0
13 11 0
14 12 0
15 13 0
16 14 0
20 16 0
22 17 0
23 18 0
24 19 0
25 20 0
26 21 0
28 22 0
29 23 0
32 24 0
33 25 0
34 26 0
35 28 0
36 30 0
37 31 0
38 32 0
39 34 0
40 36 0
41 37 0
42 38 0
43 39 0
44 40 0
45 41 0
46 42 0
2 7 38 1000 43
0 0 0
1 1 0
2 2 0
3 3 0
4 4 0
5 5 0
6 6 0
7 7 0
9 8 0
10 9 0
11 10 0
12 11 0
13 12 0
14 14 0
15 16 0
16 17 0
17 18 0
18 19 0
19 20 0
20 21 0
21 22 0
22 23 0
23 24 0
24 26 0
25 27 0
26 28 0
27 29 0
28 30 0
30 32 0
31 33 0
32 36 0
33 37 0
34 38 0
35 39 0
36 40 0
37 41 0
38 42 0
39 43 0
40 44 0
41 45 0
42 46 0
43 47 0
44 48 0
2 7 22 1000 37
1 0 0
2 1 0
3 2 0
4 3 0
6 4 0
7 5 0
8 6 0
9 7 0
10 8 0
11 9 0
12 10 0
13 11 0
14 13 0
15 14 0
16 15 0
17 16 0
18 17 0
19 18 0
20 19 0
21 20 0
23 21 0
24 23 0
25 24 0
26 25 0
27 26 0
28 27 0
29 28 0
30 29 0
33 32 0
35 33 0
36 34 0
38 35 0
39 36 0
41 37 0
43 38 0
44 39 0
45 40 0
2 7 44 1000 37
0 0 0
1 1 0
2 2 0
4 3 0
5 4 0
6 5 0
8 6 0
9 7 0
10 8 0
12 9 0
13 10 0
14 12 0
16 14 0
17 15 0
18 16 0
19 17 0
20 18 0
21 19 0
23 20 0
25 22 0
26 23 0
27 24 0
29 25 0
30 27 0
31 28 0
32 30 0
33 31 0
34 32 0
35 33 0
36 34 0
37 35 0
38 36 0
40 37 0
41 38 0
42 39 0
43 40 0
44 41 0
2 7 82 1000 40
0 0 0
1 1 0
2 2 0
3 3 0
4 4 0
5 5 0
6 6 0
7 7 0
8 8 0
9 9 0
10 10 0
11 11 0
12 12 0
13 13 0
14 15 0
15 17 0
16 18 0
17 19 0
19 20 0
20 21 0
21 22 0
22 23 0
23 24 0
24 26 0
25 27 0
27 28 0
28 29 0
29 30 0
31 31 0
32 34 0
33 35 0
35 36 0
36 37 0
37 38 0
38 39 0
40 40 0
41 41 0
42 42 0
43 43 0
45 44 0
2 9 66 1000 35
0 1 0
1 3 0
2 4 0
3 5 0
4 6 0
5 7 0
6 8 0
7 9 0
9 12 0
10 13 0
11 14 0
12 15 0
13 16 0
14 17 0
15 18 0
16 19 0
17 20 0
18 21 0
21 24 0
22 25 0
23 26 0
24 27 0
25 28 0
26 29 0
27 30 0
28 31 0
29 32 0
30 34 0
31 35 0
32 36 0
33 37 0
35 38 0
37 39 0
38 41 0
39 42 0
2 25 68 1000 38
1 0 0
2 1 0
3 2 0
4 3 0
5 4 0
6 5 0
7 6 0
8 7 0
9 8 0
10 9 0
11 10 0
12 12 0
13 14 0
14 15 0
15 17 0
16 18 0
17 20 0
18 21 0
19 22 0
22 23 0
23 24 0
24 25 0
25 26 0
26 27 0
27 28 0
28 29 0
29 30 0
31 31 0
32 32 0
33 33 0
34 34 0
35 35 0
36 36 0
37 38 0
39 39 0
40 40 0
41 41 0
44 42 0
2 27 80 1000 36
0 0 0
1 2 0
2 3 0
3 4 0
4 5 0
5 6 0
6 7 0
7 8 0
8 10 0
12 12 0
13 13 0
16 14 0
17 15 0
18 16 0
20 17 0
21 18 0
22 19 0
23 20 0
24 21 0
26 22 0
27 23 0
28 24 0
29 25 0
32 26 0
33 27 0
35 28 0
36 29 0
37 30 0
38 31 0
39 33 0
40 34 0
42 35 0
43 36 0
44 37 0
45 38 0
46 40 0
2 27 54 1000 44
0 0 0
1 2 0
2 3 0
3 4 0
4 5 0
5 6 0
6 7 0
7 8 0
8 10 0
9 11 0
10 12 0
11 14 0
12 15 0
14 16 0
15 17 0
17 18 0
18 19 0
19 20 0
20 21 0
21 22 0
22 23 0
23 24 0
24 25 0
25 26 0
26 27 0
27 28 0
28 29 0
29 30 0
30 31 0
31 32 0
32 33 0
33 34 0
34 35 0
35 36 0
36 37 0
37 38 0
38 39 0
40 41 0
41 42 0
42 43 0
43 44 0
44 45 0
45 46 0
46 48 0
2 27 70 1000 42
0 0 0
1 2 0
2 3 0
3 4 0
4 5 0
5 6 0
7 7 0
8 9 0
9 10 0
10 11 0
11 13 0
12 14 0
13 15 0
14 16 0
15 17 0
16 18 0
17 19 0
18 20 0
19 21 0
20 22 0
21 23 0
22 24 0
23 25 0
26 26 0
27 27 0
29 28 0
30 29 0
31 30 0
32 31 0
34 32 0
35 33 0
36 34 0
37 35 0
38 36 0
39 38 0
40 39 0
41 40 0
42 41 0
43 42 0
44 43 0
45 44 0
46 46 0
2 29 36 1000 39
0 0 0
1 1 0
2 2 0
3 3 0
4 4 0
5 5 0
6 6 0
7 7 0
9 8 0
10 9 0
11 10 0
12 11 0
13 12 0
15 13 0
16 14 0
17 15 0
19 16 0
20 17 0
21 18 0
22 19 0
23 20 0
24 21 0
25 22 0
27 24 0
28 25 0
29 26 0
30 27 0
31 28 0
32 29 0
35 31 0
36 32 0
38 33 0
39 34 0
40 35 0
41 36 0
42 37 0
45 38 0
48 39 0
49 40 0
2 33 40 1000 44
0 0 0
1 2 0
2 3 0
3 4 0
4 7 0
6 9 0
7 10 0
8 12 0
9 13 0
10 14 0
11 15 0
12 16 0
13 17 0
14 18 0
15 19 0
16 20 0
17 21 0
18 22 0
19 23 0
20 24 0
21 25 0
22 27 0
23 28 0
24 29 0
25 30 0
26 31 0
27 32 0
28 33 0
29 34 0
30 35 0
31 36 0
32 37 0
33 38 0
34 39 0
35 40 0
36 41 0
37 42 0
38 43 0
39 44 0
40 46 0
41 47 0
42 48 0
43 49 0
44 50 0
2 37 72 1000 35
2 1 0
3 2 0
4 3 0
5 4 0
6 6 0
7 7 0
8 8 0
9 10 0
10 11 0
11 12 0
12 13 0
13 14 0
16 15 0
18 16 0
20 17 0
21 18 0
22 19 0
23 20 0
24 21 0
26 22 0
29 24 0
30 26 0
31 27 0
32 28 0
33 29 0
34 30 0
35 32 0
36 34 0
37 35 0
38 36 0
39 37 0
40 38 0
41 39 0
42 41 0
43 42 0
2 45 98 1000 36
0 0 0
1 1 0
2 2 0
3 4 0
4 5 0
5 6 0
6 7 0
7 8 0
8 10 0
9 11 0
10 12 0
14 13 0
15 14 0
16 16 0
17 17 0
18 18 0
19 19 0
20 20 0
21 21 0
23 23 0
24 24 0
26 25 0
27 26 0
28 27 0
29 28 0
30 29 0
31 30 0
32 32 0
33 34 0
35 35 0
36 36 0
37 37 0
38 38 0
39 39 0
40 40 0
41 41 0
2 73 74 1000 32
0 0 0
1 2 0
2 3 0
3 4 0
4 5 0
5 6 0
7 7 0
9 9 0
10 10 0
11 11 0
13 14 0
15 16 0
16 18 0
17 19 0
18 20 0
20 21 0
21 22 0
24 23 0
25 24 0
26 25 0
29 26 0
30 27 0
32 28 0
33 29 0
34 30 0
35 32 0
36 33 0
37 34 0
38 36 0
39 37 0
40 38 0
41 39 0
2 83 92 1000 36
0 2 0
1 4 0
2 5 0
3 7 0
4 8 0
5 9 0
6 10 0
8 12 0
9 13 0
12 14 0
13 15 0
14 16 0
15 17 0
16 18 0
17 19 0
18 20 0
19 21 0
20 22 0
21 23 0
22 24 0
23 25 0
24 26 0
25 27 0
26 28 0
27 29 0
28 30 0
29 31 0
30 32 0
32 33 0
33 36 0
35 38 0
36 40 0
37 42 0
38 43 0
39 44 0
40 45 0
2 87 88 1000 40
0 0 0
2 1 0
3 2 0
4 3 0
5 4 0
6 5 0
7 6 0
8 7 0
9 8 0
11 9 0
12 10 0
13 11 0
14 12 0
15 13 0
17 14 0
18 15 0
19 16 0
20 17 0
22 18 0
24 19 0
25 20 0
27 21 0
28 22 0
29 23 0
31 24 0
32 25 0
33 26 0
35 27 0
38 28 0
39 29 0
40 30 0
41 31 0
42 32 0
44 33 0
45 34 0
46 35 0
47 36 0
48 37 0
49 38 0
51 39 0
2 93 96 1000 46
0 0 0
1 1 0
2 2 0
3 3 0
6 4 0
7 5 0
8 6 0
10 7 0
11 8 0
12 9 0
13 10 0
14 11 0
15 12 0
16 13 0
17 14 0
18 15 0
19 16 0
20 17 0
22 18 0
23 19 0
24 20 0
25 21 0
26 22 0
27 23 0
29 24 0
30 25 0
31 26 0
32 27 0
33 28 0
34 29 0
35 30 0
36 31 0
38 32 0
39 33 0
40 34 0
41 35 0
42 36 0
43 37 0
44 38 0
45 39 0
46 40 0
47 41 0
48 42 0
49 43 0
50 44 0
51 45 0
